============================[ Problem Statistics ]=============================|                                                                             ||  Number of variables:          4242                                         ||  Number of clauses:           10161                                         ||  Parse time:                   0.55 s                                       ||                                                                             |============================[ Search Statistics ]==============================| Conflicts |          ORIGINAL         |          LEARNT          | Progress ||           |    Vars  Clauses Literals |    Limit  Clauses Lit/Cl |          |===============================================================================|       100 |    1591     6366   875707 |     2334      100     53 | 62.501 % ||       250 |    1591     6366   875707 |     2567      250     75 | 62.495 % |===============================================================================restarts              : 3conflicts             : 305            (366 /sec)decisions             : 570            (0.00 % random) (684 /sec)propagations          : 11862          (14240 /sec)conflict literals     : 24139          (94.73 % deleted)CPU time              : 0.833 sSATISFIABLE